
Welcome to IBM(R) ILOG(R) CPLEX(R) Interactive Optimizer 22.1.1.0
  with Simplex, Mixed Integer & Barrier Optimizers
5725-A06 5725-A29 5724-Y48 5724-Y49 5724-Y54 5724-Y55 5655-Y21
Copyright IBM Corp. 1988, 2022.  All Rights Reserved.

Type 'help' for a list of available commands.
Type 'help' followed by a command name for more
information on commands.

CPLEX> Selected objective sense:  MINIMIZE
Selected objective  name:  00000000
Selected RHS        name:  RHS1
Selected bound      name:  BOUND
Problem 'ee.mps' read.
Read time = 0.03 sec. (3.14 ticks)
CPLEX> New value for time limit in seconds: 7200
CPLEX> New value for parallel optimization mode: -1
CPLEX> New value for default parallel thread count: 40
CPLEX> New value for mixed integer optimality gap tolerance: 1e-13
CPLEX> Version identifier: 22.1.1.0 | 2022-11-28 | 9160aff4d
CPXPARAM_Threads                                 40
CPXPARAM_Parallel                                -1
CPXPARAM_TimeLimit                               7200
CPXPARAM_MIP_Tolerances_MIPGap                   1e-13
Found incumbent of value 0.000000 after 0.00 sec. (0.31 ticks)
Tried aggregator 2 times.
MIP Presolve eliminated 180 rows and 2745 columns.
MIP Presolve modified 5862 coefficients.
Aggregator did 713 substitutions.
Reduced MIP has 3624 rows, 7739 columns, and 28645 nonzeros.
Reduced MIP has 7739 binaries, 0 generals, 0 SOSs, and 0 indicators.
Presolve time = 0.07 sec. (68.56 ticks)
Probing time = 0.03 sec. (6.06 ticks)
Tried aggregator 1 time.
Detecting symmetries...
Reduced MIP has 3624 rows, 7739 columns, and 28645 nonzeros.
Reduced MIP has 7739 binaries, 0 generals, 0 SOSs, and 0 indicators.
Presolve time = 0.03 sec. (21.82 ticks)
Probing time = 0.02 sec. (5.87 ticks)
Clique table members: 18552.
MIP emphasis: balance optimality and feasibility.
MIP search method: dynamic search.
Parallel mode: opportunistic, using up to 40 threads.
Root relaxation solution time = 0.09 sec. (74.40 ticks)

        Nodes                                         Cuts/
   Node  Left     Objective  IInf  Best Integer    Best Bound    ItCnt     Gap

*     0+    0                            0.0000  -1.31000e+13              --- 
*     0+    0                      -5.50000e+12  -1.31000e+13           138.18%
      0     0  -1.30900e+13    55  -5.50000e+12  -1.30900e+13     2125  138.00%
*     0+    0                      -1.30900e+13  -1.30900e+13             0.00%
*     0+    0                      -1.30900e+13  -1.30900e+13             0.00%
      0     0  -1.30900e+13    86  -1.30900e+13      Cuts: 39     3058    0.00%
      0     0  -1.30900e+13   151  -1.30900e+13      Cuts: 57     3236    0.00%
*     0+    0                      -1.30900e+13  -1.30900e+13             0.00%
*     0+    0                      -1.30900e+13  -1.30900e+13             0.00%

Repeating presolve.
Tried aggregator 2 times.
MIP Presolve eliminated 1380 rows and 3443 columns.
MIP Presolve added 16 rows and 0 columns.
MIP Presolve modified 103 coefficients.
Aggregator did 488 substitutions.
Reduced MIP has 1772 rows, 3757 columns, and 13289 nonzeros.
Reduced MIP has 3757 binaries, 0 generals, 0 SOSs, and 0 indicators.
Presolve time = 0.05 sec. (43.18 ticks)
Probing fixed 28 vars, tightened 0 bounds.
Probing time = 0.06 sec. (15.90 ticks)
Tried aggregator 2 times.
MIP Presolve eliminated 38 rows and 46 columns.
Aggregator did 8 substitutions.
Reduced MIP has 1726 rows, 3702 columns, and 13063 nonzeros.
Reduced MIP has 3702 binaries, 0 generals, 0 SOSs, and 0 indicators.
Presolve time = 0.02 sec. (20.76 ticks)
Probing time = 0.03 sec. (8.28 ticks)
Tried aggregator 1 time.
Detecting symmetries...
MIP Presolve eliminated 6 rows and 3 columns.
Reduced MIP has 1720 rows, 3699 columns, and 13045 nonzeros.
Reduced MIP has 3699 binaries, 0 generals, 0 SOSs, and 0 indicators.
Presolve time = 0.02 sec. (14.42 ticks)
Represolve time = 0.21 sec. (121.00 ticks)
Probing time = 0.02 sec. (3.65 ticks)
Clique table members: 8817.
MIP emphasis: balance optimality and feasibility.
MIP search method: dynamic search.
Parallel mode: opportunistic, using up to 40 threads.
Root relaxation solution time = 0.08 sec. (34.72 ticks)

        Nodes                                         Cuts/
   Node  Left     Objective  IInf  Best Integer    Best Bound    ItCnt     Gap

*     0+    0                      -1.30900e+13  -1.30900e+13             0.00%
      0     0  -1.30900e+13    94  -1.30900e+13  -1.30900e+13     4443    0.00%
      0     0  -1.30900e+13   136  -1.30900e+13      Cuts: 73     4668    0.00%
      0     0  -1.30900e+13   154  -1.30900e+13      Cuts: 60     4900    0.00%
      0     2  -1.30900e+13   133  -1.30900e+13  -1.30900e+13     4900    0.00%
Elapsed time = 1.92 sec. (1273.30 ticks, tree = 0.02 MB, solutions = 7)
    853    76  -1.30900e+13   193  -1.30900e+13  -1.30900e+13    51574    0.00%
   2081    43        cutoff        -1.30900e+13  -1.30900e+13    94538    0.00%

GUB cover cuts applied:  2
Clique cuts applied:  21
Cover cuts applied:  540
Flow cuts applied:  6
Mixed integer rounding cuts applied:  7
Zero-half cuts applied:  15
Lift and project cuts applied:  8
Gomory fractional cuts applied:  23

Root node processing (before b&c):
  Real time             =    1.53 sec. (1272.94 ticks)
Parallel b&c, 40 threads:
  Real time             =    1.70 sec. (634.71 ticks)
  Sync time (average)   =    0.67 sec.
  Wait time (average)   =    0.00 sec.
                          ------------
Total (root+branch&cut) =    3.23 sec. (1907.65 ticks)

Solution pool: 12 solutions saved.

MIP - Integer optimal solution:  Objective = -1.3089999890e+13
Solution time =    3.30 sec.  Iterations = 162184  Nodes = 2345
Deterministic time = 1907.68 ticks  (578.04 ticks/sec)

CPLEX> Solution 'p13' written to file 'ee.sol'.
CPLEX> 